17	4	3
36	29	45	31	26	33	22	
0	0	0	0	0	2	4	10	7	4	9	3	2	3	4
7	9	4	8	9	8	4	2	1	8	1	1	5
4	0	0	3	0	4	3	4	1	2	2	3	6	8	17
4	2	0	0	0	3	6	10	3	3	6	3	9	11	17
5	10	9	5	3	4	7	1	9	8	1	2	7	17
50	0	0	0	10	9	9	4	8	6	7	2	15	17
25	8	0	0	0	7	4	1	9	4	8	1	14
175	0	10	8	0	10	7	1	3	8	3	1	17
75	3	10	0	5	5	10	9	4	3	1	1	10
175	7	0	0	0	10	6	8	10	5	6	1	17
150	5	0	9	7	10	3	4	4	1	10	2	12	17
200	0	0	1	6	1	8	3	1	7	6	2	13	17
3	10	0	0	0	8	6	2	9	8	10	1	16
1	7	10	6	0	1	3	9	9	6	2	1	17
8	4	2	10	0	10	6	7	7	6	1	1	17
5	1	0	0	0	3	6	4	6	9	5	1	17
0	0	0	0	0	5	9	2	8	9	8	0
